
Gurobi 8.1.1 (mac64, Python) logging started Fri Jul 12 08:25:17 2019

Academic license - for non-commercial use only

Gurobi 8.1.1 (mac64, Python) logging started Fri Jul 12 09:03:35 2019

Academic license - for non-commercial use only

Gurobi 8.1.1 (mac64, Python) logging started Fri Jul 12 09:04:19 2019

Academic license - for non-commercial use only

Gurobi 8.1.1 (mac64, Python) logging started Fri Jul 12 09:04:55 2019

Academic license - for non-commercial use only

Gurobi 8.1.1 (mac64, Python) logging started Fri Jul 12 09:05:30 2019

Academic license - for non-commercial use only
